
%FILE DATA:	Soccer Computational Problem for MiniZinc Models	%
%AUTHOR:	Jack Wall	%
%CONTACT:  	116397063@umail.ucc.ie			%
%LAST UPDATE:	03/03/2020, 12:12:28						%
%DESCRIPTION: 	54 games played with 18 games left				%


n=9; %number of teams

%Games to play
games=[|3,6|9,6|2,4|3,2|7,9|3,9|3,1|9,1|8,4|7,2|6,8|4,1|1,3|8,3|2,7|1,6|7,3|2,9|];

%Initial points
iPoints=[11,13,10,24,14,19,15,26,14];

%POSITION CONSTRAINTS
% [|teamID, operator, position|...]
% operators index:
%  1 for =  operator
%  2 for >  operator
%  3 for >= operator
%  4 for <  operator
%  5 for <= operator
positionConstraints=[|8,5,1|4,3,2|2,1,3|6,3,4|];